num_offers = 30;
num_halls = 10;
start=[51,65,16,4,44,71,16,33,34,43,34,24,15,52,10,10,26,7,6,62,15,4,47,9,51,31,27,15,22,6];
end=[94,78,27,87,79,98,82,71,90,89,42,57,94,86,74,41,56,61,80,88,78,19,88,100,52,87,71,37,41,26];
price=[2105,634,382,4427,1418,2644,2764,1716,2961,3363,475,1049,7334,2263,4824,1923,674,5108,1642,728,5662,940,3429,6409,73,5239,628,708,1826,2018];
requirement=[589,980,256,738,773,738,274,433,739,827,817,429,226,826,546,213,589,272,307,499,259,727,761,245,693,328,262,831,679,273];
capacity=[566,946,249,347,825,926,648,477,845,896];
